c WARNING: for repeatability, setting FPU to use double precision
d VARIABLES            61354        
d CONSTRAINTS          260703       
c ============================[ Problem Statistics ]=============================
c |                                                                             |
c |  Number of variables:         61354                                         |
c |  Number of clauses:          260703                                         |
c |  Parse time:                   0.04 s                                       |
c |                                                                             |
c ============================[ Search Statistics ]==============================
c | Conflicts |          ORIGINAL         |          LEARNT          | Progress |
c |           |    Vars  Clauses Literals |    Limit  Clauses Lit/Cl |          |
c ===============================================================================
c |       100 |   48754   224823   547106 |    82435       99     15 | 20.537 % |
c |       250 |   48754   224823   547106 |    90678      249     46 | 20.537 % |
c |       475 |   48754   224794   547036 |    99746      474     70 | 20.537 % |
c |       812 |   48754   224794   547036 |   109721      811     68 | 20.537 % |
c |      1318 |   48754   224794   547036 |   120693     1317     58 | 20.537 % |
c |      2077 |   48754   224794   547036 |   132762     2076     62 | 20.537 % |
c |      3216 |   48754   224794   547036 |   146038     3215     78 | 20.537 % |
c |      4924 |   48754   224794   547036 |   160642     4923     71 | 20.537 % |
c |      7486 |   48754   224794   547036 |   176706     7485     73 | 20.537 % |
c |     11330 |   48754   224794   547036 |   194377    11329     71 | 20.537 % |
c |     17096 |   48754   224794   547036 |   213815    17095     68 | 20.537 % |
c |     25745 |   48754   224794   547036 |   235196    25744     66 | 20.537 % |
c |     38719 |   48754   224794   547036 |   258716    38718     63 | 20.537 % |
c ===============================================================================
c restarts              : 173
c conflicts             : 55525          (4256 /sec)
c decisions             : 129850         (0.00 % random) (9954 /sec)
c propagations          : 71328492       (5467957 /sec)
c conflict literals     : 3278726        (45.57 % deleted)
d RESTARTS             173
d FAILURES             55525        
d NODES                129850       
d BACKTRACKS           129850       
d PROPAGATIONS         71328492     
d NOGOODSIZE           59.05 
d MEMORY               57.00 
d TIME                 13.0448 

s UNSATISFIABLE
